% seed = 0

mint = 25;
% maxt = 142;

nActs = 62;
dur = [0,1,3,3,5,3,2,2,2,3,1,2,2,1,2,4,3,2,2,2,3,2,3,3,2,3,2,1,2,2,3,2,4,3,2,2,3,2,2,3,3,3,3,1,2,2,1,3,1,2,3,4,3,2,1,1,3,3,1,3,3,0];

nSkills = 5;
sreq = [| 0,0,0,0,0,
	| 0,1,1,0,0,
	| 1,0,1,1,0,
	| 0,0,0,1,0,
	| 1,0,0,0,1,
	| 0,1,0,1,0,
	| 0,1,0,1,0,
	| 1,2,0,0,0,
	| 0,0,0,1,1,
	| 1,1,0,0,0,
	| 1,2,0,0,0,
	| 1,0,0,0,0,
	| 0,1,0,0,0,
	| 1,0,0,0,1,
	| 1,0,1,0,0,
	| 0,1,0,0,0,
	| 2,0,0,0,1,
	| 1,0,1,0,0,
	| 0,0,0,1,1,
	| 0,2,0,0,0,
	| 2,1,0,0,0,
	| 0,0,0,0,1,
	| 1,0,0,0,1,
	| 1,1,0,1,0,
	| 0,0,1,0,0,
	| 1,0,0,1,0,
	| 1,1,0,0,0,
	| 0,2,0,0,0,
	| 0,1,0,1,1,
	| 1,1,0,0,0,
	| 0,2,1,0,0,
	| 1,0,0,0,0,
	| 1,0,1,0,1,
	| 1,1,0,0,0,
	| 1,1,0,0,1,
	| 1,0,0,1,0,
	| 0,0,0,1,0,
	| 0,0,0,2,0,
	| 0,1,0,0,0,
	| 0,1,0,0,0,
	| 0,1,0,0,0,
	| 1,2,0,0,0,
	| 0,0,0,0,1,
	| 0,1,0,0,0,
	| 0,2,1,0,0,
	| 0,1,1,1,0,
	| 0,1,0,0,0,
	| 0,0,0,0,1,
	| 0,1,1,0,1,
	| 0,1,0,0,0,
	| 0,1,0,0,0,
	| 0,1,0,0,0,
	| 0,0,1,0,0,
	| 0,0,0,0,1,
	| 1,0,0,0,0,
	| 0,1,0,0,0,
	| 0,0,0,1,1,
	| 1,0,0,0,1,
	| 1,0,1,0,0,
	| 0,0,0,0,2,
	| 1,0,0,2,0,
	| 0,0,0,0,0, |];

% SumOfsreq = 113;

nResources = 4;
mastery = [| false,true,false,true,true,
	| true,false,true,true,false,
	| true,true,false,false,false,
	| false,true,false,false,true, |];

nPrecs = 93;
pred = [1,1,1,2,2,2,3,3,3,4,4,4,5,5,5,6,6,6,7,7,7,8,8,8,9,9,10,10,11,11,12,13,13,13,14,15,15,16,17,18,19,19,19,20,21,22,23,24,25,26,26,27,28,29,30,31,32,33,34,35,36,37,38,39,40,40,40,41,42,42,43,43,44,44,45,45,46,46,47,48,49,50,51,52,53,54,55,56,57,58,59,60,61];
succ = [2,3,4,9,49,5,6,7,8,11,30,16,10,14,23,26,29,45,34,13,47,12,15,32,52,48,53,24,19,21,18,17,25,20,59,58,27,45,54,49,28,22,38,61,51,43,32,35,41,33,40,45,31,39,41,48,36,58,37,44,51,59,52,61,42,44,46,42,58,55,50,44,52,54,50,56,57,60,48,53,59,55,53,57,55,56,60,57,61,60,62,62,62];

nUnrels = 1359;
unpred = [2,2,2,2,2,2,2,2,2,2,2,2,2,2,2,2,2,2,2,2,2,2,2,2,2,2,2,2,2,2,2,2,2,2,2,2,2,3,3,3,3,3,3,3,3,3,3,3,3,3,3,3,3,3,3,4,4,4,4,4,4,4,4,4,4,4,4,4,4,4,4,4,4,4,4,4,4,4,4,4,4,4,4,4,4,4,5,5,5,5,5,5,5,5,5,5,5,5,5,5,5,5,5,5,5,5,5,5,5,5,5,5,5,5,5,5,5,5,5,5,5,5,5,5,6,6,6,6,6,6,6,6,6,6,6,6,6,6,6,6,6,6,6,6,6,6,6,6,6,6,6,6,6,6,6,6,6,6,6,6,6,7,7,7,7,7,7,7,7,7,7,7,7,7,7,7,7,7,7,7,7,7,7,7,7,7,7,7,7,7,7,7,7,7,7,7,8,8,8,8,8,8,8,8,8,8,8,8,8,8,8,8,8,8,8,8,8,8,8,8,8,8,8,8,8,8,8,8,8,8,8,9,9,9,9,9,9,9,9,9,9,9,9,9,9,9,9,9,9,9,9,9,9,9,9,9,9,9,9,9,9,9,9,9,9,9,9,9,9,9,9,9,9,9,9,9,10,10,10,10,10,10,10,10,10,10,10,10,10,10,10,10,10,10,10,10,10,10,10,10,10,10,10,10,10,10,10,10,10,10,10,10,10,10,10,10,11,11,11,11,11,11,11,11,11,11,11,11,11,11,11,11,11,11,11,11,11,11,11,11,11,11,11,11,11,11,11,12,12,12,12,12,12,12,12,12,12,12,12,12,12,12,12,12,12,12,12,12,12,12,12,12,12,12,12,12,12,12,12,12,12,12,12,12,12,12,12,12,12,12,12,12,12,13,13,13,13,13,13,13,13,13,13,13,13,13,13,13,13,13,13,13,13,13,13,13,13,13,13,13,13,13,13,13,13,13,13,13,13,14,14,14,14,14,14,14,14,14,14,14,14,14,14,14,14,14,14,14,14,14,14,14,14,14,14,14,14,14,14,14,14,14,14,14,14,14,14,14,14,14,14,14,14,14,14,15,15,15,15,15,15,15,15,15,15,15,15,15,15,15,15,15,15,15,15,15,15,15,15,15,15,15,15,15,15,15,15,15,15,15,15,15,16,16,16,16,16,16,16,16,16,16,16,16,16,16,16,16,16,16,16,16,16,16,16,16,16,16,16,16,16,16,16,16,16,16,16,16,16,16,17,17,17,17,17,17,17,17,17,17,17,17,17,17,17,17,17,17,17,17,17,17,17,17,17,17,17,17,17,17,17,17,17,17,17,17,17,17,17,17,18,18,18,18,18,18,18,18,18,18,18,18,18,18,18,18,18,18,18,18,18,18,18,18,18,18,18,18,18,18,18,18,18,18,18,18,18,18,18,18,18,19,19,19,19,19,19,19,19,19,19,19,19,19,19,19,19,19,19,19,19,19,19,19,19,19,19,20,20,20,20,20,20,20,20,20,20,20,20,20,20,20,20,20,20,20,20,20,20,20,20,20,20,20,20,20,20,20,20,20,20,20,20,20,20,20,20,21,21,21,21,21,21,21,21,21,21,21,21,21,21,21,21,21,21,21,21,21,21,21,21,21,21,21,21,21,21,21,21,21,21,21,21,22,22,22,22,22,22,22,22,22,22,22,22,22,22,22,22,22,22,22,22,22,22,22,22,22,22,22,22,22,23,23,23,23,23,23,23,23,23,23,23,23,23,23,23,23,23,23,23,23,23,23,23,23,23,23,23,23,23,23,23,23,24,24,24,24,24,24,24,24,24,24,24,24,24,24,24,24,24,24,24,24,24,24,24,24,24,24,24,24,24,24,25,25,25,25,25,25,25,25,25,25,25,25,25,25,25,25,25,25,25,25,25,25,25,25,25,25,25,25,25,25,25,26,26,26,26,26,26,26,26,26,26,26,26,26,26,26,26,26,26,26,26,26,26,27,27,27,27,27,27,27,27,27,27,27,27,27,27,27,27,27,27,27,27,27,27,27,27,27,27,27,28,28,28,28,28,28,28,28,28,28,28,28,28,28,28,28,28,28,28,28,28,28,28,28,28,28,28,28,29,29,29,29,29,29,29,29,29,29,29,29,29,29,29,29,29,29,29,29,29,29,29,29,29,29,29,29,29,29,30,30,30,30,30,30,30,30,30,30,30,30,30,30,30,30,30,30,30,30,30,30,30,30,30,30,31,31,31,31,31,31,31,31,31,31,31,31,31,31,31,31,31,31,31,31,31,31,31,31,31,31,32,32,32,32,32,32,32,32,32,32,32,32,32,32,32,32,32,32,32,32,32,32,32,32,33,33,33,33,33,33,33,33,33,33,33,33,33,33,33,33,33,33,33,33,33,33,33,33,33,33,34,34,34,34,34,34,34,34,34,34,34,34,34,34,34,34,34,34,34,34,34,34,34,34,34,35,35,35,35,35,35,35,35,35,35,35,35,35,35,35,35,35,35,35,35,36,36,36,36,36,36,36,36,36,36,36,36,36,36,36,36,36,36,36,36,36,37,37,37,37,37,37,37,37,37,37,37,37,37,37,37,37,37,37,37,37,37,37,37,38,38,38,38,38,38,38,38,38,38,38,38,38,38,38,38,38,38,38,38,39,39,39,39,39,39,39,39,39,39,39,39,39,39,39,39,39,39,39,39,39,40,40,40,40,40,40,40,40,40,40,41,41,41,41,41,41,41,41,41,41,41,41,41,41,41,41,42,42,42,42,42,42,42,42,42,42,42,42,42,42,42,42,43,43,43,43,43,43,43,43,43,44,44,44,44,44,44,44,44,44,44,44,44,45,45,45,45,45,45,45,45,45,45,46,46,46,46,46,46,46,46,46,46,46,46,47,47,47,47,47,47,47,47,47,47,48,48,48,48,48,48,48,48,48,48,49,49,49,49,49,49,49,49,49,49,49,50,50,50,50,50,50,50,50,50,51,51,51,51,51,51,51,52,52,52,52,52,52,52,53,53,53,53,53,53,54,54,54,54,55,55,55,55,55,56,56,56,57,57,57,58,58,59,59,60];
unsucc = [3,4,6,7,8,11,12,13,15,16,17,18,19,20,21,22,25,26,27,28,29,30,31,33,34,37,38,39,40,41,42,43,45,46,47,50,58,4,5,9,10,11,14,16,19,21,22,23,24,28,30,31,35,38,43,5,6,7,8,9,10,12,13,14,15,17,18,20,23,24,25,26,27,29,32,33,34,35,36,37,39,40,46,47,49,59,6,7,8,9,11,12,13,15,16,17,18,19,20,21,22,25,26,27,28,29,30,31,33,34,37,38,39,40,41,42,43,45,46,47,48,49,50,58,7,8,9,10,11,12,13,14,15,16,17,18,19,20,21,22,23,24,25,27,28,30,31,32,34,35,36,37,38,41,43,47,48,49,51,53,59,8,9,10,11,12,14,15,16,18,19,21,22,23,24,26,27,28,29,30,31,32,33,35,36,38,39,40,43,44,45,46,49,50,51,52,9,10,11,13,14,16,17,19,20,21,22,23,24,25,26,28,29,30,31,33,34,35,37,38,39,40,41,42,43,44,46,47,48,52,54,10,11,12,13,14,15,16,17,18,19,20,21,22,23,24,25,26,27,28,29,30,31,32,33,34,35,36,37,38,39,40,41,42,43,44,45,46,47,49,50,51,54,56,58,59,11,12,13,14,15,16,17,18,19,20,21,22,23,25,26,27,28,29,30,31,32,33,34,36,37,38,39,40,41,42,43,45,46,47,48,49,50,51,58,59,12,13,14,15,16,17,18,20,23,24,25,26,27,29,30,32,33,34,35,36,37,39,40,41,42,45,46,47,49,58,59,13,14,15,16,17,19,20,21,22,23,24,25,26,27,28,29,30,31,32,33,34,35,36,37,38,39,40,41,42,43,44,45,46,47,48,50,51,52,53,54,55,56,57,58,60,61,14,15,16,18,19,21,22,23,24,26,27,28,29,30,31,32,33,34,35,36,37,38,39,40,43,44,45,46,47,48,49,50,51,52,53,59,15,16,17,18,19,20,21,22,23,24,25,26,27,28,29,30,31,32,33,34,35,36,37,38,39,40,41,42,43,44,45,46,47,48,49,50,51,52,53,54,55,56,57,58,60,61,16,17,18,19,20,21,22,23,24,25,26,28,29,30,31,32,33,34,35,36,37,38,39,40,41,42,43,44,46,47,48,49,51,52,53,54,59,17,18,19,20,21,22,23,24,25,26,27,28,29,30,31,32,33,34,35,36,37,38,39,40,41,42,43,44,46,47,48,49,51,52,53,54,58,59,18,19,20,21,22,23,24,25,26,27,28,29,30,31,32,33,34,35,36,37,38,39,40,41,42,43,44,45,46,47,48,49,50,51,52,53,55,58,59,60,19,20,21,22,23,24,25,26,27,28,29,30,31,32,33,34,35,36,37,38,39,40,41,42,43,44,45,46,47,48,50,51,52,53,54,55,56,57,58,60,61,20,21,23,24,25,26,27,29,30,32,33,34,35,36,37,39,40,41,42,45,46,47,49,51,58,59,21,22,23,24,25,26,27,28,29,30,31,32,33,34,35,36,37,38,39,40,41,42,43,44,45,46,47,48,49,50,51,52,53,54,55,56,57,58,59,60,22,23,24,25,26,27,28,29,30,31,32,33,34,35,36,37,38,39,40,41,42,43,44,45,46,47,48,49,50,52,54,56,57,58,59,61,23,24,25,26,27,28,29,30,31,32,33,34,35,36,37,38,39,40,41,42,45,46,47,48,49,51,53,58,59,24,25,26,27,28,29,30,31,33,34,35,37,38,39,40,41,42,43,44,45,46,47,48,49,50,52,54,56,57,58,59,61,25,26,27,28,29,30,31,32,33,34,36,37,38,39,40,41,42,43,45,46,47,48,49,50,51,53,55,58,59,60,26,27,28,29,30,31,32,33,34,35,36,37,38,39,40,43,44,45,46,47,48,49,50,51,52,53,54,56,57,59,61,27,28,29,30,31,32,34,35,36,37,38,39,41,43,45,47,48,49,50,51,53,59,28,29,30,31,32,33,34,35,36,37,38,39,40,41,42,43,44,46,47,48,49,51,52,53,54,58,59,29,30,32,33,34,35,36,37,38,39,40,41,42,43,44,45,46,47,49,50,51,52,54,56,57,58,59,61,30,31,32,33,34,35,36,37,38,40,41,42,43,44,45,46,47,48,49,50,51,52,53,54,55,56,57,58,59,60,31,32,33,34,35,36,37,38,39,40,43,44,45,46,47,48,49,50,51,52,53,54,56,57,59,61,32,33,34,35,36,37,38,39,40,41,42,43,44,45,46,47,49,50,51,52,54,56,57,58,59,61,33,34,35,37,38,39,40,41,42,43,44,45,46,47,48,49,50,52,54,56,57,58,59,61,34,35,36,37,38,39,40,41,42,43,44,45,46,47,48,49,50,51,52,53,54,55,56,57,59,61,35,36,38,39,40,41,42,43,44,45,46,47,48,49,50,51,52,53,54,55,56,57,58,60,61,36,37,38,39,40,41,42,43,45,46,47,48,49,50,51,53,55,58,59,60,37,38,39,40,41,42,43,44,45,46,47,48,49,50,52,54,56,57,58,59,61,38,39,40,41,42,43,44,45,46,47,48,49,50,51,52,53,54,55,56,57,58,60,61,39,40,41,42,43,44,45,46,47,48,49,50,51,53,54,55,56,58,59,60,40,41,42,43,44,45,46,47,48,49,50,51,52,53,54,55,56,57,58,59,60,41,43,45,47,48,49,50,51,53,59,43,44,45,46,47,48,49,50,51,52,53,54,56,57,59,61,43,44,45,46,47,48,49,50,51,52,53,54,56,57,59,61,45,46,47,48,49,51,53,58,59,45,46,47,48,49,50,51,53,55,58,59,60,46,47,48,49,51,52,53,54,58,59,47,48,49,50,51,52,53,54,55,56,58,59,49,50,51,52,54,56,57,58,59,61,49,50,51,52,54,56,57,58,59,61,50,51,52,53,54,55,56,57,58,60,61,51,52,53,54,56,57,58,59,61,52,54,56,57,58,59,61,53,54,55,56,58,59,60,54,56,57,58,59,61,55,58,59,60,56,57,58,59,61,58,59,60,58,59,60,59,61,60,61,61];

USEFUL_RES = [{},
	{1,2,3,4},
	{1,2,3},
	{1,2},
	{1,2,3,4},
	{1,2,3,4},
	{1,2,3,4},
	{1,2,3,4},
	{1,2,4},
	{1,2,3,4},
	{1,2,3,4},
	{2,3},
	{1,3,4},
	{1,2,3,4},
	{2,3},
	{1,3,4},
	{1,2,3,4},
	{2,3},
	{1,2,4},
	{1,3,4},
	{1,2,3,4},
	{1,4},
	{1,2,3,4},
	{1,2,3,4},
	{2},
	{1,2,3},
	{1,2,3,4},
	{1,3,4},
	{1,2,3,4},
	{1,2,3,4},
	{1,2,3,4},
	{2,3},
	{1,2,3,4},
	{1,2,3,4},
	{1,2,3,4},
	{1,2,3},
	{1,2},
	{1,2},
	{1,3,4},
	{1,3,4},
	{1,3,4},
	{1,2,3,4},
	{1,4},
	{1,3,4},
	{1,2,3,4},
	{1,2,3,4},
	{1,3,4},
	{1,4},
	{1,2,3,4},
	{1,3,4},
	{1,3,4},
	{1,3,4},
	{2},
	{1,4},
	{2,3},
	{1,3,4},
	{1,2,4},
	{1,2,3,4},
	{2,3},
	{1,4},
	{1,2,3},
	{}];

POTENTIAL_ACT = [{2,3,4,5,6,7,8,9,10,11,13,14,16,17,19,20,21,22,23,24,26,27,28,29,30,31,33,34,35,36,37,38,39,40,41,42,43,44,45,46,47,48,49,50,51,52,54,56,57,58,60,61},
	{2,3,4,5,6,7,8,9,10,11,12,14,15,17,18,19,21,23,24,25,26,27,29,30,31,32,33,34,35,36,37,38,42,45,46,49,53,55,57,58,59,61},
	{2,3,5,6,7,8,10,11,12,13,14,15,16,17,18,20,21,23,24,26,27,28,29,30,31,32,33,34,35,36,39,40,41,42,44,45,46,47,49,50,51,52,55,56,58,59,61},
	{2,5,6,7,8,9,10,11,13,14,16,17,19,20,21,22,23,24,27,28,29,30,31,33,34,35,39,40,41,42,43,44,45,46,47,48,49,50,51,52,54,56,57,58,60}];
